letting n =  10
letting blocks =  [[1, 4], [1, 5], [2, 5], [2, 7], [3, 3], [3, 8], [4, 7], [4, 10], [5, 3], [5, 5], [5, 6], [5, 7], [6, 5], [6, 9], [6, 10], [7, 8], [7, 9], [8, 1], [8, 6], [9, 3], [9, 6], [10, 2], [10, 3], [10, 4], [10, 7], [10, 10]]
